(set-logic LIA)

(declare-const j Int)
(declare-const j! Int)
(declare-const i Int)
(declare-const i! Int)

(declare-const j_22 Int)
(declare-const j_16 Int)
(declare-const j_14 Int)
(declare-const i_21 Int)
(declare-const i_15 Int)
(declare-const i_13 Int)

(define-fun inv-f((i Int)(j Int)) Bool
